Traveling Salesman Problem/TSP_generados/Aleatorio1621103677_17.tsp
NAME: Aleatorio1621103677_17.tsp
COMMENT: Randomly generated scenario
TYPE: TSP
DIMENSION: 17
EDGE_WEIGHT_TYPE: ATT
NODE_COORD_SECTION
1 31.14 0.12
2 25.5 34.85
3 44.43 37.79
4 37.97 9.56
5 3.71 37.39
6 15.27 28.34
7 47.15 41.45
8 42.93 29.31
9 42.06 46.72
10 0.67 41.87
11 12.8 7.52
12 35.45 11.61
13 43.96 13.05
14 29.42 21.15
15 42.97 28.9
16 14.96 35.78
17 10.01 40.95
