Traveling Salesman Problem/TSP_generados/Aleatorio1621103677_17.opt.tour
NAME: Aleatorio1621103677_17.opt.tour
COMMENT: Optimal solution for Aleatorio1621103677_17 (183.35768073955032)
TYPE: TOUR
DIMENSION: 17
TOUR_SECTION
1 11 6 5 10 17 16 2 9 7 3 8 15 14 12 13 4
-1
EOF
